p cnf 12 50 
4 -5 12 0
2 11 3 0
-2 1 -11 0
12 -4 6 0
-8 -2 -6 0
4 8 9 0
4 10 -7 0
8 -6 -7 0
11 1 8 0
5 -3 -4 0
3 -10 11 0
-5 -12 10 0
5 -4 9 0
-10 -12 -5 0
-3 10 4 0
10 8 9 0
4 2 8 0
9 10 -1 0
8 -6 9 0
-12 3 9 0
-11 -5 3 0
9 -11 12 0
-8 -4 12 0
12 -9 -1 0
8 1 10 0
-8 -10 11 0
9 6 -2 0
2 7 -11 0
-3 1 2 0
-3 -12 -11 0
-3 -7 4 0
2 -9 10 0
-5 2 1 0
-6 9 -7 0
7 8 6 0
-5 -2 11 0
-6 -3 11 0
-1 9 -3 0
9 2 -11 0
12 -3 -1 0
-7 12 8 0
-3 7 -12 0
8 -10 -7 0
5 -6 10 0
-11 10 -7 0
3 7 10 0
-6 -4 -2 0
2 -9 5 0
7 -12 -9 0
3 1 12 0
